6563
0 0 0 1 0 0 1 0 1 0 1 1 0 0 0 0 0 1 0 0 0 0 0 1 0 0 0 0 1 1 
10 10 10 10 10 10 10 11 11 11 11 11 11 11 11 3 3 3 3 3 3 6 6 6 6 6 6 8 8 8 8 8 29 29 10 3 3 17 3 28 29 3 3 23 17 3 28 17 29 28 29 17 17 23 3 28 29 28 3 17 3 11 28 28 17 17 17 17 11 28 
